GLPSOL--GLPK LP/MIP Solver 5.0
Parameter(s) specified in the command line:
 --lp ../modeles/15_409.lp --log 15_409.log
Reading problem data from '../modeles/15_409.lp'...
6196 rows, 12300 columns, 43020 non-zeros
6135 integer variables, all of which are binary
18517 lines were read
GLPK Integer Optimizer 5.0
6196 rows, 12300 columns, 43020 non-zeros
6135 integer variables, all of which are binary
Preprocessing...
6090 constraint coefficient(s) were reduced
6196 rows, 12285 columns, 43005 non-zeros
6135 integer variables, all of which are binary
Scaling...
 A: min|aij| =  2.391e-05  max|aij| =  4.000e+00  ratio =  1.673e+05
GM: min|aij| =  4.945e-02  max|aij| =  2.022e+01  ratio =  4.090e+02
EQ: min|aij| =  2.445e-03  max|aij| =  1.000e+00  ratio =  4.090e+02
2N: min|aij| =  1.530e-03  max|aij| =  1.707e+00  ratio =  1.116e+03
Constructing initial basis...
Size of triangular part is 6196
Solving LP relaxation...
GLPK Simplex Optimizer 5.0
6196 rows, 12285 columns, 43005 non-zeros
      0: obj =   3.000000000e+01 inf =   8.545e+02 (31)
Perturbing LP to avoid stalling [199]...
    584: obj =   4.998236490e-01 inf =   0.000e+00 (0)
Removing LP perturbation [1374]...
*  1374: obj =  -3.872731333e+00 inf =   2.325e-14 (0) 1
OPTIMAL LP SOLUTION FOUND
Integer optimization begins...
Long-step dual simplex will be used
+  1374: mip =     not found yet >=              -inf        (1; 0)
+  1591: >>>>>  -3.872731333e+00 >=  -3.872731333e+00   0.0% (216; 0)
+  1591: mip =  -3.872731333e+00 >=     tree is empty   0.0% (0; 431)
INTEGER OPTIMAL SOLUTION FOUND
Time used:   4.7 secs
Memory used: 17.7 Mb (18565987 bytes)
